Pt O  H 
 1.0000000000000000
    11.2460002898999996    0.0000000000000000    0.0000000000000000
     0.0000000000000000    9.7399997711000008    0.0000000000000000
     0.0000000000000000    0.0000000000000000   49.7999992371000033
 Pt  O   H  
  64  60 136
Selective dynamics
Direct
  0.0000000000000000  0.0000000000000000  0.0351410000000000   F   F   F
  0.2500440000000000  0.0000000000000000  0.0351410000000000   F   F   F
  0.4999999999999999  0.0000000000000000  0.0351410000000000   F   F   F
  0.7500449999999999  0.0000000000000000  0.0351410000000000   F   F   F
  0.1250220000000000  0.2500000000000000  0.0351410000000000   F   F   F
  0.3749780000000000  0.2500000000000000  0.0351410000000000   F   F   F
  0.6250220000000000  0.2500000000000000  0.0351410000000000   F   F   F
  0.8750669999999999  0.2500000000000000  0.0351410000000000   F   F   F
  0.0000000000000000  0.5000000000000000  0.0351410000000000   F   F   F
  0.2500440000000000  0.5000000000000000  0.0351410000000000   F   F   F
  0.4999999999999999  0.5000000000000000  0.0351410000000000   F   F   F
  0.7500449999999999  0.5000000000000000  0.0351410000000000   F   F   F
  0.1250220000000000  0.7500000000000000  0.0351410000000000   F   F   F
  0.3749780000000000  0.7500000000000000  0.0351410000000000   F   F   F
  0.6250220000000000  0.7500000000000000  0.0351410000000000   F   F   F
  0.8750669999999999  0.7500000000000000  0.0351410000000000   F   F   F
  0.0000000000000000  0.1666320000000000  0.0812450000000000   F   F   F
  0.2500440000000000  0.1666320000000000  0.0812450000000000   F   F   F
  0.4999999999999999  0.1666320000000000  0.0812450000000000   F   F   F
  0.7500449999999999  0.1666320000000000  0.0812450000000000   F   F   F
  0.1250220000000000  0.4166320000000001  0.0812450000000000   F   F   F
  0.3749780000000000  0.4166320000000001  0.0812450000000000   F   F   F
  0.6250220000000000  0.4166320000000001  0.0812450000000000   F   F   F
  0.8750669999999999  0.4166320000000001  0.0812450000000000   F   F   F
  0.0000000000000000  0.6666320000000000  0.0812450000000000   F   F   F
  0.2500440000000000  0.6666320000000000  0.0812450000000000   F   F   F
  0.4999999999999999  0.6666320000000000  0.0812450000000000   F   F   F
  0.7500449999999999  0.6666320000000000  0.0812450000000000   F   F   F
  0.1250220000000000  0.9166320000000000  0.0812450000000000   F   F   F
  0.3749780000000000  0.9166320000000000  0.0812450000000000   F   F   F
  0.6250220000000000  0.9166320000000000  0.0812450000000000   F   F   F
  0.8750669999999999  0.9166320000000000  0.0812450000000000   F   F   F
  0.3592870000000000  0.0601040000000000  0.1258280000000000   T   T   T
  0.2332950000000000  0.3082350000000000  0.1264630000000000   T   T   T
  0.9614610000000000  0.8123170000000000  0.1265450000000000   T   T   T
  0.9909010000000000  0.3040470000000000  0.1266320000000000   T   T   T
  0.8542319999999999  0.0628030000000000  0.1266400000000000   T   T   T
  0.7253509999999999  0.3157940000000000  0.1270230000000000   T   T   T
  0.5959609999999999  0.5565520000000000  0.1272830000000000   T   T   T
  0.4758749999999999  0.3133460000000000  0.1273050000000000   T   T   T
  0.6054640000000000  0.0593040000000000  0.1277590000000000   T   T   T
  0.2177880000000000  0.8152100000000000  0.1277930000000000   T   T   T
  0.0999960000000000  0.5692650000000001  0.1281330000000000   T   T   T
  0.3463250000000000  0.5709370000000000  0.1282090000000000   T   T   T
  0.7119729999999999  0.8041710000000000  0.1289630000000000   T   T   T
  0.8466499999999999  0.5566860000000000  0.1290070000000000   T   T   T
  0.4794379999999999  0.7996070000000001  0.1291370000000000   T   T   T
  0.1014820000000000  0.0588500000000000  0.1294000000000000   T   T   T
  0.6980081200000000  0.4575797300000001  0.1727176400000000   T   T   T
  0.4599809999999999  0.9619410000000000  0.1729360000000000   T   T   T
  0.0788360000000000  0.7137040000000001  0.1736810000000000   T   T   T
  0.4692070000000000  0.4611040000000001  0.1737120000000000   T   T   T
  0.2108525700000000  0.9544019300000001  0.1740256100000000   T   T   T
  0.9781260000000001  0.4683490000000001  0.1747660000000000   T   T   T
  0.3385260000000000  0.2051940000000000  0.1750670000000000   T   T   T
  0.8311780000000000  0.2073640000000000  0.1752500000000000   T   T   T
  0.2267540000000000  0.4576410000000001  0.1752770000000000   T   T   T
  0.3428289999999999  0.7056460000000000  0.1753500000000000   T   T   T
  0.5830699999999999  0.2047780000000000  0.1758950000000000   T   T   T
  0.9634399999999999  0.9647040000000000  0.1759100000000000   T   T   T
  0.8420840000000001  0.7098860000000000  0.1761160000000000   T   T   T
  0.7077109999999999  0.9505590000000000  0.1763570000000000   T   T   T
  0.5951260000000000  0.7003050000000000  0.1765230000000000   T   T   T
  0.0790581500000000  0.2077332000000000  0.1783699700000000   T   T   T
  0.5195744600000000  0.9639543300000000  0.2401406200000000   T   T   T
  0.0280714600000000  0.7498043300000000  0.2408486200000000   T   T   T
  0.6032584599999999  0.3163503300000000  0.2408766200000000   T   T   T
  0.8890134600000000  0.5185543300000001  0.2426476200000000   T   T   T
  0.5134674599999999  0.5865303300000000  0.2431376200000000   T   T   T
  0.0316044600000000  0.1375883300000000  0.2444436200000000   T   T   T
  0.2446154600000000  0.0501203300000000  0.2445916200000000   T   T   T
  0.2763424600000000  0.7870663300000001  0.2470706200000000   T   T   T
  0.2306284600000000  0.4678953300000001  0.2487796200000000   T   T   T
  0.7767024600000000  0.8967163300000000  0.2527146200000000   T   T   T
  0.3711354600000000  0.2529103300000000  0.2637506200000000   T   T   T
  0.7205114599999999  0.6467943300000000  0.2689196200000000   T   T   T
  0.0423464600000000  0.3570873300000000  0.2690146200000000   T   T   T
  0.7500344599999998  0.2313183300000000  0.2817266200000000   T   T   T
  0.5455084600000000  0.8630763299999999  0.2881056200000000   T   T   T
  0.3816964600000000  0.6966253300000000  0.2946116200000000   T   T   T
  0.9773744599999998  0.8051093300000001  0.2956136200000000   T   T   T
  0.3907984600000000  0.4286253300000000  0.3014796200000000   T   T   T
  0.7670494599999998  0.4698783300000000  0.3084686200000000   T   T   T
  0.9186134599999999  0.0359933300000000  0.3096796200000000   T   T   T
  0.6473434600000000  0.0470473300000000  0.3198466200000000   T   T   T
  0.9944984599999999  0.5520993300000000  0.3250286200000000   T   T   T
  0.1944114600000000  0.3618133300000000  0.3307476200000000   T   T   T
  0.5540974599999999  0.4276433300000000  0.3412516200000000   T   T   T
  0.0234984600000000  0.1743223300000000  0.3441836200000000   T   T   T
  0.3453724600000000  0.8671973300000001  0.3445306200000000   T   T   T
  0.5535304599999999  0.1713223300000000  0.3631736200000000   T   T   T
  0.9872464599999999  0.6989553300000000  0.3702936200000000   T   T   T
  0.1411444600000000  0.9584813300000000  0.3715936200000000   T   T   T
  0.5238574600000000  0.7354993300000000  0.3801746200000000   T   T   T
  0.2818284599999999  0.3543293300000000  0.3802266200000000   T   T   T
  0.9024454599999999  0.2685323300000000  0.3889006200000000   T   T   T
  0.3529394600000000  0.0854873300000000  0.3934396200000000   T   T   T
  0.7740894599999999  0.7020353300000000  0.3958276200000000   T   T   T
  0.4448544600000000  0.5137573300000000  0.4008296200000000   T   T   T
  0.0689744600000000  0.4549453300000000  0.4019496200000000   T   T   T
  0.6758174599999999  0.2448433300000000  0.4093016200000000   T   T   T
  0.0211804600000000  0.0658183300000000  0.4218566200000000   T   T   T
  0.4584564600000000  0.8846793300000000  0.4253046200000000   T   T   T
  0.6964944600000000  0.5127243300000000  0.4322796200000000   T   T   T
  0.8401294600000000  0.8701403300000000  0.4331516200000000   T   T   T
  0.6404564600000000  0.0244563300000000  0.4417536200000000   T   T   T
  0.1469954600000000  0.5711753300000000  0.4509086200000000   T   T   T
  0.3512414600000000  0.7005833299999999  0.4588316199999999   T   T   T
  0.9660524600000000  0.7190593300000000  0.4696176200000000   T   T   T
  0.1233864600000000  0.0923943300000000  0.4705956200000000   T   T   T
  0.5406504600000001  0.5616253300000000  0.4733836199999999   T   T   T
  0.8257004599999999  0.5053723300000000  0.4812486200000000   T   T   T
  0.6125754600000000  0.1471493300000000  0.4864336200000000   T   T   T
  0.1970964600000000  0.3695253300000000  0.4907336200000000   T   T   T
  0.2546904600000000  0.8778493300000001  0.4936476200000000   T   T   T
  0.4502094600000000  0.3615853300000000  0.5005956200000000   T   T   T
  0.4932414600000000  0.9234923300000000  0.5106296200000000   T   T   T
  0.0388474600000000  0.8316603299999999  0.5123026200000000   T   T   T
  0.0026454600000000  0.1038193300000000  0.5152586200000000   T   T   T
  0.7830064599999998  0.1913143300000000  0.5252696200000000   T   T   T
  0.5718454600000000  0.6019943300000001  0.5286556200000000   T   T   T
  0.7778004599999999  0.4703763300000001  0.5316586200000000   T   T   T
  0.0077184600000000  0.5829353300000000  0.5399736200000000   T   T   T
  0.0906394600000000  0.3199813300000000  0.5478726200000000   T   T   T
  1.8364732200000000  0.3877675000000000  0.1854072900000000   T   T   T
  1.2082469999999998  0.6292006000000000  0.1888836500000000   T   T   T
  1.3396741000000001  0.8779207900000001  0.1916134700000000   T   T   T
  0.2128329800000000  1.1204371000000000  0.1917781200000000   T   T   T
  0.5763563500000000  0.8717016700000000  0.1920900200000000   T   T   T
  0.3502623200000000  0.3721362200000000  0.1921492200000000   T   T   T
  1.9497103000000000  0.1252166200000000  0.1922901700000000   T   T   T
  1.4598256900000000  0.1194553200000000  0.1924017400000000   T   T   T
  1.4648130100000001  0.6220326600000000  0.1926500600000000   T   T   T
  1.7099167899999999  0.1203936000000000  0.1929237900000000   T   T   T
  1.5855011800000001  0.3711286700000000  0.1933941300000000   T   T   T
  0.0867789000000000  0.8749134600000000  0.1934754400000000   T   T   T
  1.8395409800000000  0.8771126100000000  0.1940166100000000   T   T   T
  1.9637496399999999  0.6265868999999999  0.1945003700000000   T   T   T
  0.8940784599999999  0.5094883300000000  0.2220926200000000   T   T   T
  0.5157464599999999  0.5991193299999999  0.2237106200000000   T   T   T
  0.0098554600000000  0.1426123300000000  0.2241386200000000   T   T   T
  0.5287984600000000  0.8984263300000002  0.2248176200000000   T   T   T
  0.0037894600000000  0.8079973300000001  0.2248186200000000   T   T   T
  0.6545944600000000  0.3394053300000000  0.2251056200000000   T   T   T
  0.2705974600000000  0.0651753300000000  0.2255706200000000   T   T   T
  0.2401854600000000  0.5083433300000000  0.2310126200000000   T   T   T
  0.7813284600000000  0.8852903300000000  0.2326296200000000   T   T   T
  0.3291194599999999  0.7528903300000001  0.2332656200000000   T   T   T
  0.6016464600000000  0.0030523300000000  0.2372286200000000   T   T   T
  0.1944654600000000  0.7715803300000000  0.2384416200000000   T   T   T
  0.9758974599999999  0.6692233300000000  0.2420396200000000   T   T   T
  0.5269224600000000  0.4849293300000000  0.2424886200000000   T   T   T
  0.2771344600000000  0.9551513300000001  0.2448986200000000   T   T   T
  0.8129494599999999  0.5736963300000001  0.2467316200000000   T   T   T
  0.1036664600000000  0.0808493300000000  0.2474136200000000   T   T   T
  0.2880264600000000  0.3899353300000000  0.2480766200000000   T   T   T
  0.4461454599999999  0.2371643300000000  0.2525146200000000   T   T   T
  0.6565634600000000  0.2816413300000000  0.2549586200000000   T   T   T
  0.0452854600000000  0.2500033300000000  0.2583046200000000   T   T   T
  0.8570364600000000  0.9114583300000001  0.2601516200000000   T   T   T
  0.6388254599999998  0.6267853300000000  0.2602676200000000   T   T   T
  0.1228004600000000  0.4105153300000000  0.2612126200000000   T   T   T
  0.9628814599999999  0.4025023300000001  0.2618276200000000   T   T   T
  0.3322964600000000  0.1606343300000000  0.2644976200000000   T   T   T
  0.7462234599999999  0.7478203300000000  0.2665646200000000   T   T   T
  0.5301874599999999  0.8961913300000000  0.2693326200000000   T   T   T
  0.0084934600000000  0.7836723300000001  0.2766696200000000   T   T   T
  0.8214794600000001  0.1849253300000000  0.2772726200000000   T   T   T
  0.3346334600000000  0.7209793300000000  0.2775976200000000   T   T   T
  0.4019944600000000  0.3525753300000000  0.2870186200000000   T   T   T
  0.7763154599999998  0.3148903300000000  0.2910666200000000   T   T   T
  0.4742404599999999  0.7884363300000001  0.2942876200000000   T   T   T
  0.4035834599999999  0.5941173300000000  0.2947386200000000   T   T   T
  0.7581574599999998  0.5458993300000000  0.2963546200000000   T   T   T
  0.5590254600000000  0.9386463300000001  0.3013136200000000   T   T   T
  0.6675224599999999  0.1142943300000000  0.3057126200000000   T   T   T
  0.9517694599999998  0.9402793300000000  0.3057136200000000   T   T   T
  0.9882094599999999  0.7148083300000000  0.3060256200000000   T   T   T
  0.4551154600000000  0.4127713299999999  0.3160636200000000   T   T   T
  0.8361684600000000  0.0182733300000000  0.3166546200000000   T   T   T
  0.2541464600000000  0.3836603300000000  0.3170156200000000   T   T   T
  0.9158114599999999  0.5101693300000000  0.3211266200000000   T   T   T
  0.7044634600000000  0.4762083300000001  0.3218956200000000   T   T   T
  0.3478014600000000  0.8200633300000000  0.3268676200000000   T   T   T
  0.9875824599999999  0.1265703300000000  0.3269016200000000   T   T   T
  0.1220544600000000  0.4160423300000000  0.3291216200000000   T   T   T
  0.6094824599999998  0.0944633300000000  0.3351336200000000   T   T   T
  0.1005614600000000  0.2147853300000000  0.3395516200000000   T   T   T
  0.9842844600000000  0.6010543300000000  0.3419886200000000   T   T   T
  0.2697644600000000  0.9108223300000000  0.3495856200000000   T   T   T
  0.5425794599999999  0.3355173300000000  0.3506236200000000   T   T   T
  0.5302664600000000  0.4719563300000000  0.3586716200000000   T   T   T
  0.0998314600000000  0.0293933300000000  0.3601566200000000   T   T   T
  0.2465784600000000  0.3494023300000000  0.3602536200000000   T   T   T
  0.0956864600000000  0.8778573300000000  0.3694606200000000   T   T   T
  0.4649224600000000  0.7885043300000000  0.3697246199999999   T   T   T
  0.9101264599999999  0.2498913300000000  0.3700516200000000   T   T   T
  0.4744594600000000  0.1361543300000000  0.3702196200000000   T   T   T
  0.9043754599999999  0.7003753300000000  0.3769016199999999   T   T   T
  0.0195244600000000  0.6226293300000000  0.3802556200000000   T   T   T
  0.6018834600000000  0.1881303300000000  0.3803206200000000   T   T   T
  0.2920394600000000  0.0315273300000000  0.3837196200000000   T   T   T
  0.4947114600000000  0.6446563300000000  0.3868826200000000   T   T   T
  0.2963934599999999  0.2618073300000000  0.3879066200000000   T   T   T
  0.6968134600000000  0.7396263300000000  0.3899596200000000   T   T   T
  0.9550144599999999  0.3534033300000000  0.3916726200000000   T   T   T
  0.1393724600000000  0.4134423300000000  0.3931706200000000   T   T   T
  0.3735944600000000  0.4572013300000001  0.3956076200000000   T   T   T
  0.7612034599999999  0.2317133300000000  0.4042636200000000   T   T   T
  0.0748824600000000  0.0420043300000000  0.4073336200000000   T   T   T
  0.3715594600000000  0.0171193300000000  0.4075276199999999   T   T   T
  0.7999014599999998  0.7682953300000002  0.4101686200000000   T   T   T
  0.5002024600000000  0.8274463300000000  0.4119456200000000   T   T   T
  0.9737024600000000  0.1375623300000000  0.4125756200000000   T   T   T
  0.4885304600000000  0.4633573300000000  0.4143406200000000   T   T   T
  0.7334224599999999  0.5704653300000000  0.4176506200000000   T   T   T
  0.0994674600000000  0.4937933300000000  0.4191046199999999   T   T   T
  0.6493224600000000  0.1691413300000000  0.4206216200000000   T   T   T
  0.6858054600000000  0.4174933300000001  0.4245666200000000   T   T   T
  0.9035434600000000  0.9414873300000000  0.4281066199999999   T   T   T
  0.4144134600000000  0.8273093300000000  0.4375686200000000   T   T   T
  0.7663064600000000  0.9283873300000000  0.4379896200000000   T   T   T
  0.5635554599999999  0.9786163300000001  0.4400996200000000   T   T   T
  0.2851934600000000  0.6436953300000000  0.4502886199999999   T   T   T
  0.0931414600000000  0.0837843300000000  0.4524976199999999   T   T   T
  0.9109374600000000  0.7683943300000000  0.4563826200000000   T   T   T
  0.6392274599999999  0.0807753300000000  0.4585996200000000   T   T   T
  0.6028554599999999  0.5601443300000000  0.4586406200000000   T   T   T
  0.0921894600000000  0.6320123300000000  0.4603576200000000   T   T   T
  0.7920914600000000  0.5171913299999999  0.4628416200000000   T   T   T
  0.1726024600000000  0.4947883300000000  0.4635916199999999   T   T   T
  0.4201644600000000  0.6430283300000000  0.4662826199999999   T   T   T
  0.1811234600000000  0.0238273300000000  0.4735156200000000   T   T   T
  0.8854794599999999  0.5806973300000001  0.4824176199999999   T   T   T
  0.2739064600000000  0.7929283300000001  0.4827106200000000   T   T   T
  0.1709604600000000  0.2745493300000000  0.4835646200000000   T   T   T
  0.9863604599999999  0.7738203299999999  0.4854796200000000   T   T   T
  0.5510944599999998  0.2188133300000000  0.4860096200000000   T   T   T
  0.4809444600000000  0.4383453300000000  0.4898976200000000   T   T   T
  0.5719644600000000  0.5954783299999999  0.4919336200000000   T   T   T
  0.3661484600000000  0.3448273300000000  0.4952006200000000   T   T   T
  0.0386274600000000  0.1035313300000000  0.4961906200000000   T   T   T
  0.6810744600000000  0.1851223300000000  0.4969836200000000   T   T   T
  0.3295184600000000  0.8898293300000000  0.5016936200000000   T   T   T
  0.5396384599999999  0.9994473300000001  0.5026086200000000   T   T   T
  0.1452634600000000  0.3828193300000000  0.5064006200000000   T   T   T
  0.1282534600000000  0.8419043300000000  0.5065666200000000   T   T   T
  0.7855534600000000  0.4927113299999999  0.5117356199999999   T   T   T
  0.5448034600000000  0.8442573300000000  0.5153936200000000   T   T   T
  0.0090914600000000  0.0012623300000000  0.5187026200000000   T   T   T
  0.8606214599999999  0.1371493300000000  0.5223786200000000   T   T   T
  0.0334574600000000  0.7590123300000000  0.5269896200000000   T   T   T
  0.7720174599999999  0.3663433300000000  0.5295706200000000   T   T   T
  0.5042834600000000  0.5450513299999999  0.5330426200000000   T   T   T
  0.6495834600000000  0.5528733300000001  0.5339566200000000   T   T   T
  0.0799584600000000  0.2400583300000000  0.5364966200000000   T   T   T
  0.7464404599999999  0.1650963300000000  0.5423226200000000   T   T   T
  0.9223394600000000  0.5595193300000000  0.5425756200000000   T   T   T
  0.0497514600000000  0.5005943300000000  0.5438496200000000   T   T   T
  0.0432594600000000  0.2955203300000000  0.5634526200000000   T   T   T
